10
45
0	1	454
0	2	128
0	3	65
0	4	83
0	5	33
0	6	101
0	7	71
0	8	44
0	9	10
1	2	289
1	3	59
1	4	228
1	5	76
1	6	15
1	7	109
1	8	60
1	9	48
2	3	84
2	4	229
2	5	40
2	6	71
2	7	27
2	8	127
2	9	9
3	4	22
3	5	92
3	6	55
3	7	282
3	8	80
3	9	11
4	5	253
4	6	7
4	7	149
4	8	73
4	9	20
5	6	127
5	7	65
5	8	233
5	9	5
6	7	263
6	8	4
6	9	69
7	8	23
7	9	86
8	9	43